/* Objective function */
// xij -> emparelhamento. = caso não seja escolhido. 1 Caso seja.

min: 3 x12 + 6.08 x13 + 8.06 x14 + 4.12 x15 + 3 x16 + 7.21 x18 + 7 x19 + 7.28 x1_10 + 8.60 x1_11 + 10.63 x1_12 + 5 x1_13 + 3.16 x23
   + 5.10 x24 + 1.41 x25 + 4.24 x26 + 6.08 x28 + 7.62 x29 + 7.07 x2_10 + 7.28 x2_11 + 8.60 x2_12 + 3.16 x2_13 + 2 x34 + 2.83 x35
   + 7.21 x36 + 7.28 x38 + 10 x39 + 8.94 x3_10 + 8.06 x3_11 + 8.25 x3_12 + 4.47 x3_13 + 4.47 x45 + 8.94 x46 + 8.06 x48 + 11.31 x49
   + 10 x4_10 + 8.54 x4_11 + 8 x4_12 + 5.66 x4_13 + 4.47 x56 + 5 x58 + 7.21 x59 + 6.32 x5_10 + 6.08 x5_11 + 7.21 x5_12 + 2 x5_13
   + 5 x68 +  4 x69 + 4.47 x6_10 + 6.40 x6_11 + 8.94 x6_12 + 4 x6_13 + 4.12 x89 + 2.24 x8_10 + 1.41 x8_11 + 4.12 x8_12 + 3 x8_13
   + 2 x9_10 + 5 x9_11 + 8 x9_12 + 5.66 x9_13 + 3 x10_11 + 6 x10_12 + 4.47 x10_13 + 3 x11_12 + 4.12 x11_13 + 5.66 x12_13 ;

/* Variable bounds */
/*Garantir que as parelhas são válidas*/

Vertice1: x12 + x13 + x14 + x15 + x16 + x18 + x19 + x1_10 + x1_11 + x1_12 + x1_13 = 1 ;
Vertice2: x12 + x23 + x24 + x25 + x26 + x28 + x29 + x2_10 + x2_11 + x2_12 + x2_13 = 1 ;
Vertice3: x13 + x23 + x34 + x35 + x36 + x38 + x39 + x3_10 + x3_11 + x3_12 + x3_13 = 1 ;
Vertice4: x14 + x24 + x34 + x45 + x46 + x48 + x49 + x4_10 + x4_11 + x4_12 + x4_13 = 1 ;
Vertice5: x15 + x25 + x35 + x45 + x56 + x58 + x59 + x5_10 + x5_11 + x5_12 + x5_13 = 1 ;
Vertice6: x16 + x26 + x36 + x46 + x56 + x68 + x69 + x6_10 + x6_11 + x6_12 + x6_13 = 1 ;
Vertice8: x18 + x28 + x38 + x48 + x58 + x68 + x89 + x8_10 + x8_11 + x8_12 + x8_13 = 1 ;
Vertice9: x19 + x29 + x39 + x49 + x59 + x69 + x89 + x9_10 + x9_11 + x9_12 + x9_13 = 1 ;
Vertice10: x1_10 + x2_10 + x3_10 + x4_10 + x5_10 + x6_10 + x8_10 + x9_10 + x10_11 + x10_12 + x10_13 = 1 ;
Vertice11: x1_11 + x2_11 + x3_11 + x4_11 + x5_11 + x6_11 + x8_11 + x9_11 + x10_11 + x11_12 + x11_13 = 1 ;
Vertice12: x1_12 + x2_12 + x3_12 + x4_12 + x5_12 + x6_12 + x8_12 + x9_12 + x10_12 + x11_12 + x12_13 = 1 ;
Vertice13: x1_13 + x2_13 + x3_13 + x4_13 + x5_13 + x6_13 + x8_13 + x9_13 + x10_13 + x11_13 + x12_13 = 1 ;


bin x12 , x13 , x14 , x15 , x16 , x18 , x19 , x1_10 , x1_11 , x1_12 , x1_13 ;
bin x23 , x24 , x25 , x26 , x28 , x29 , x2_10 , x2_11 , x2_12 , x2_13 ;
bin x34 , x35 , x36 , x38 , x39 , x3_10 , x3_11 , x3_12 , x3_13 ;
bin x45 , x46 , x48 , x49 , x4_10 , x4_11 , x4_12 , x4_13 ;
bin x56 , x58 , x59 , x5_10 , x5_11 , x5_12 , x5_13 ;
bin x68 , x69 , x6_10 , x6_11 , x6_12 , x6_13 ;
bin x89 , x8_10 , x8_11 , x8_12 , x8_13 ;
bin x9_10 , x9_11 , x9_12 , x9_13 ;
bin x10_11 , x10_12 , x10_13 ;
bin x11_12 , x11_13 ;
bin x12_13 ;





